3 5
198 285 144 
0 83 73 101 91 20 10 71 92 58 6 35 69 3
1 33 23 110 100 86 76 73 71 82 82 26 38 3
2 55 45 90 80 32 22 91 83 64 99 76 52 2
3 86 76 94 84 11 1 97 11 74 39 75 77 1
4 41 31 12 2 82 72 21 94 48 67 36 21 1
